c "905778.clq"
p edge 100 1344
e 1 17
e 1 18
e 1 19
e 1 22
e 1 61
e 1 62
e 1 65
e 1 71
e 2 17
e 2 18
e 2 19
e 2 20
e 2 23
e 2 26
e 2 30
e 2 31
e 2 36
e 2 37
e 2 38
e 2 39
e 2 43
e 2 55
e 2 83
e 2 96
e 2 98
e 3 17
e 3 18
e 3 19
e 3 20
e 3 21
e 3 23
e 3 24
e 3 27
e 3 28
e 3 29
e 3 31
e 3 32
e 3 37
e 3 42
e 3 43
e 3 50
e 3 56
e 3 57
e 3 58
e 3 59
e 3 60
e 3 64
e 3 68
e 3 74
e 3 79
e 3 82
e 3 85
e 3 86
e 3 90
e 3 100
e 4 17
e 4 18
e 4 19
e 4 21
e 4 22
e 4 23
e 4 24
e 4 25
e 4 42
e 4 43
e 4 45
e 4 55
e 4 62
e 4 64
e 4 65
e 4 69
e 4 70
e 4 71
e 4 77
e 4 80
e 4 96
e 5 17
e 5 18
e 5 19
e 5 22
e 5 24
e 5 25
e 5 26
e 5 27
e 5 28
e 5 30
e 5 31
e 5 40
e 5 41
e 5 42
e 5 43
e 5 47
e 5 50
e 5 69
e 5 73
e 5 76
e 5 82
e 5 89
e 5 90
e 5 92
e 5 100
e 6 17
e 6 18
e 6 19
e 6 20
e 6 21
e 6 23
e 6 25
e 6 27
e 6 28
e 6 29
e 6 30
e 6 31
e 6 32
e 6 33
e 6 34
e 6 36
e 6 44
e 6 45
e 6 49
e 6 59
e 6 62
e 6 66
e 6 69
e 6 82
e 6 84
e 6 90
e 6 93
e 6 94
e 6 100
e 7 17
e 7 18
e 7 19
e 7 20
e 7 21
e 7 22
e 7 23
e 7 24
e 7 26
e 7 27
e 7 29
e 7 30
e 7 31
e 7 32
e 7 33
e 7 34
e 7 35
e 7 36
e 7 38
e 7 40
e 7 44
e 7 45
e 7 61
e 7 63
e 7 88
e 7 94
e 7 95
e 7 96
e 7 97
e 7 99
e 8 17
e 8 18
e 8 19
e 8 20
e 8 21
e 8 24
e 8 27
e 8 32
e 8 34
e 8 36
e 8 37
e 8 39
e 8 40
e 8 41
e 8 42
e 8 52
e 8 53
e 8 58
e 8 62
e 8 71
e 8 100
e 9 17
e 9 18
e 9 19
e 9 20
e 9 21
e 9 22
e 9 23
e 9 28
e 9 29
e 9 30
e 9 33
e 9 34
e 9 36
e 9 45
e 9 60
e 9 70
e 9 72
e 9 92
e 10 17
e 10 18
e 10 19
e 10 20
e 10 21
e 10 22
e 10 23
e 10 24
e 10 25
e 10 26
e 10 27
e 10 36
e 10 37
e 10 38
e 10 39
e 10 40
e 10 48
e 10 49
e 10 51
e 10 52
e 10 55
e 10 56
e 10 57
e 10 58
e 10 62
e 10 65
e 10 70
e 10 72
e 10 73
e 10 75
e 10 79
e 10 84
e 10 97
e 10 100
e 11 17
e 11 18
e 11 19
e 11 20
e 11 21
e 11 22
e 11 25
e 11 26
e 11 29
e 11 35
e 11 36
e 11 41
e 11 46
e 11 54
e 11 59
e 11 66
e 11 68
e 11 69
e 11 77
e 11 78
e 11 89
e 12 17
e 12 18
e 12 20
e 12 21
e 12 22
e 12 24
e 12 25
e 12 26
e 12 28
e 12 29
e 12 34
e 12 36
e 12 39
e 12 42
e 12 44
e 12 48
e 12 50
e 12 52
e 12 56
e 12 59
e 12 61
e 12 64
e 12 66
e 12 67
e 12 70
e 12 74
e 12 76
e 12 77
e 12 80
e 12 83
e 12 85
e 12 93
e 12 94
e 12 95
e 13 17
e 13 18
e 13 19
e 13 20
e 13 22
e 13 25
e 13 27
e 13 31
e 13 34
e 13 37
e 13 38
e 13 43
e 13 44
e 13 54
e 13 66
e 13 80
e 13 83
e 14 17
e 14 19
e 14 20
e 14 21
e 14 23
e 14 24
e 14 25
e 14 26
e 14 28
e 14 29
e 14 30
e 14 31
e 14 35
e 14 44
e 14 46
e 14 55
e 14 59
e 14 60
e 14 68
e 14 80
e 14 86
e 14 89
e 14 90
e 14 93
e 15 17
e 15 18
e 15 20
e 15 21
e 15 22
e 15 23
e 15 26
e 15 30
e 15 33
e 15 34
e 15 35
e 15 39
e 15 40
e 15 43
e 15 48
e 15 49
e 15 56
e 15 61
e 15 63
e 15 69
e 15 74
e 15 75
e 15 78
e 15 91
e 15 95
e 15 97
e 16 17
e 16 18
e 16 19
e 16 20
e 16 21
e 16 22
e 16 23
e 16 24
e 16 25
e 16 26
e 16 27
e 16 29
e 16 30
e 16 32
e 16 34
e 16 38
e 16 39
e 16 40
e 16 41
e 16 42
e 16 46
e 16 47
e 16 48
e 16 49
e 16 60
e 16 63
e 16 66
e 16 70
e 16 87
e 16 88
e 17 18
e 17 19
e 17 20
e 17 21
e 17 22
e 17 23
e 17 24
e 17 25
e 17 26
e 17 27
e 17 28
e 17 29
e 17 30
e 17 31
e 17 32
e 17 33
e 17 35
e 17 37
e 17 38
e 17 39
e 17 40
e 17 41
e 17 43
e 17 45
e 17 47
e 17 48
e 17 49
e 17 50
e 17 51
e 17 52
e 17 56
e 17 57
e 17 58
e 17 60
e 17 61
e 17 62
e 17 64
e 17 67
e 17 70
e 17 71
e 17 73
e 17 78
e 17 81
e 17 84
e 17 88
e 17 90
e 17 92
e 17 94
e 17 95
e 17 96
e 17 97
e 17 98
e 18 19
e 18 20
e 18 21
e 18 22
e 18 23
e 18 24
e 18 25
e 18 26
e 18 27
e 18 28
e 18 29
e 18 33
e 18 35
e 18 36
e 18 37
e 18 38
e 18 42
e 18 44
e 18 45
e 18 46
e 18 51
e 18 54
e 18 65
e 18 67
e 18 70
e 18 71
e 18 74
e 18 80
e 18 81
e 18 82
e 18 83
e 18 84
e 18 85
e 18 86
e 18 93
e 18 95
e 18 97
e 18 99
e 18 100
e 19 20
e 19 21
e 19 22
e 19 23
e 19 24
e 19 25
e 19 26
e 19 27
e 19 28
e 19 29
e 19 30
e 19 31
e 19 32
e 19 33
e 19 34
e 19 35
e 19 37
e 19 38
e 19 40
e 19 41
e 19 45
e 19 49
e 19 51
e 19 53
e 19 54
e 19 55
e 19 60
e 19 61
e 19 62
e 19 66
e 19 67
e 19 71
e 19 72
e 19 74
e 19 75
e 19 76
e 19 82
e 19 87
e 19 91
e 19 96
e 19 98
e 19 100
e 20 21
e 20 22
e 20 23
e 20 24
e 20 25
e 20 26
e 20 27
e 20 28
e 20 33
e 20 38
e 20 40
e 20 42
e 20 44
e 20 46
e 20 47
e 20 48
e 20 49
e 20 50
e 20 51
e 20 52
e 20 53
e 20 59
e 20 60
e 20 61
e 20 63
e 20 64
e 20 68
e 20 69
e 20 70
e 20 73
e 20 75
e 20 77
e 20 80
e 20 82
e 20 83
e 20 85
e 20 86
e 20 89
e 20 90
e 20 91
e 20 93
e 20 94
e 20 97
e 20 100
e 21 22
e 21 23
e 21 24
e 21 25
e 21 28
e 21 29
e 21 30
e 21 31
e 21 32
e 21 33
e 21 34
e 21 35
e 21 38
e 21 39
e 21 41
e 21 44
e 21 45
e 21 46
e 21 47
e 21 48
e 21 52
e 21 53
e 21 54
e 21 55
e 21 56
e 21 58
e 21 59
e 21 63
e 21 80
e 21 81
e 21 82
e 21 83
e 21 85
e 21 86
e 21 87
e 21 89
e 21 94
e 21 98
e 22 23
e 22 24
e 22 25
e 22 28
e 22 30
e 22 31
e 22 32
e 22 35
e 22 37
e 22 38
e 22 41
e 22 43
e 22 49
e 22 53
e 22 54
e 22 57
e 22 60
e 22 61
e 22 70
e 22 78
e 22 79
e 22 91
e 22 95
e 22 99
e 23 24
e 23 26
e 23 27
e 23 28
e 23 29
e 23 30
e 23 31
e 23 32
e 23 33
e 23 34
e 23 37
e 23 42
e 23 47
e 23 54
e 23 55
e 23 58
e 23 59
e 23 69
e 23 73
e 23 75
e 23 77
e 23 78
e 23 87
e 23 92
e 23 95
e 23 99
e 24 25
e 24 26
e 24 27
e 24 29
e 24 36
e 24 38
e 24 41
e 24 42
e 24 46
e 24 48
e 24 50
e 24 52
e 24 54
e 24 57
e 24 58
e 24 60
e 24 61
e 24 63
e 24 65
e 24 67
e 24 72
e 24 77
e 24 79
e 24 82
e 24 86
e 24 92
e 24 98
e 25 26
e 25 27
e 25 28
e 25 29
e 25 33
e 25 34
e 25 37
e 25 39
e 25 42
e 25 44
e 25 45
e 25 46
e 25 47
e 25 49
e 25 50
e 25 53
e 25 56
e 25 58
e 25 60
e 25 64
e 25 67
e 25 72
e 25 73
e 25 74
e 25 76
e 25 77
e 25 79
e 25 80
e 25 81
e 25 92
e 26 27
e 26 28
e 26 30
e 26 31
e 26 32
e 26 34
e 26 36
e 26 38
e 26 39
e 26 43
e 26 44
e 26 46
e 26 48
e 26 49
e 26 50
e 26 54
e 26 56
e 26 63
e 26 64
e 26 66
e 26 67
e 26 70
e 26 74
e 26 76
e 26 79
e 26 84
e 26 86
e 26 87
e 26 91
e 26 92
e 26 97
e 26 98
e 26 100
e 27 28
e 27 30
e 27 31
e 27 32
e 27 33
e 27 34
e 27 35
e 27 36
e 27 37
e 27 41
e 27 42
e 27 43
e 27 44
e 27 45
e 27 46
e 27 48
e 27 50
e 27 51
e 27 53
e 27 55
e 27 56
e 27 57
e 27 58
e 27 60
e 27 63
e 27 67
e 27 68
e 27 69
e 27 78
e 27 80
e 27 85
e 27 90
e 27 93
e 27 99
e 28 29
e 28 30
e 28 32
e 28 33
e 28 35
e 28 41
e 28 42
e 28 44
e 28 46
e 28 47
e 28 49
e 28 53
e 28 54
e 28 56
e 28 57
e 28 58
e 28 66
e 28 70
e 28 77
e 28 79
e 28 82
e 28 83
e 28 88
e 28 90
e 28 93
e 28 95
e 28 98
e 29 31
e 29 32
e 29 33
e 29 34
e 29 35
e 29 36
e 29 39
e 29 40
e 29 41
e 29 51
e 29 53
e 29 55
e 29 56
e 29 60
e 29 62
e 29 64
e 29 72
e 29 76
e 29 78
e 29 86
e 29 92
e 30 31
e 30 32
e 30 33
e 30 35
e 30 36
e 30 39
e 30 43
e 30 44
e 30 45
e 30 46
e 30 47
e 30 50
e 30 51
e 30 52
e 30 58
e 30 79
e 30 83
e 30 84
e 30 88
e 30 91
e 30 98
e 31 32
e 31 36
e 31 37
e 31 39
e 31 41
e 31 45
e 31 48
e 31 49
e 31 51
e 31 52
e 31 53
e 31 57
e 31 58
e 31 61
e 31 64
e 31 66
e 31 68
e 31 70
e 31 71
e 31 75
e 31 77
e 31 89
e 31 91
e 31 95
e 31 97
e 31 100
e 32 33
e 32 35
e 32 39
e 32 40
e 32 42
e 32 43
e 32 45
e 32 47
e 32 49
e 32 50
e 32 51
e 32 56
e 32 57
e 32 59
e 32 64
e 32 77
e 32 78
e 32 81
e 32 90
e 32 93
e 32 94
e 32 98
e 32 100
e 33 34
e 33 35
e 33 36
e 33 37
e 33 40
e 33 41
e 33 43
e 33 49
e 33 52
e 33 54
e 33 57
e 33 63
e 33 67
e 33 73
e 33 77
e 33 78
e 33 80
e 33 81
e 33 83
e 34 35
e 34 38
e 34 40
e 34 42
e 34 43
e 34 53
e 34 54
e 34 56
e 34 57
e 34 61
e 34 63
e 34 66
e 34 67
e 34 68
e 34 69
e 34 73
e 34 82
e 34 83
e 34 85
e 34 87
e 34 88
e 34 89
e 34 91
e 34 99
e 35 37
e 35 38
e 35 39
e 35 44
e 35 45
e 35 47
e 35 49
e 35 51
e 35 52
e 35 57
e 35 58
e 35 59
e 35 60
e 35 68
e 35 72
e 35 74
e 35 76
e 35 81
e 35 83
e 35 85
e 35 87
e 35 99
e 36 37
e 36 38
e 36 40
e 36 42
e 36 43
e 36 46
e 36 48
e 36 52
e 36 53
e 36 55
e 36 59
e 36 63
e 36 66
e 36 70
e 36 75
e 36 76
e 36 78
e 36 81
e 36 84
e 36 97
e 37 40
e 37 41
e 37 43
e 37 44
e 37 46
e 37 47
e 37 48
e 37 52
e 37 55
e 37 58
e 37 59
e 37 72
e 37 75
e 37 83
e 37 86
e 37 91
e 38 39
e 38 47
e 38 48
e 38 65
e 38 68
e 38 74
e 38 83
e 38 97
e 39 40
e 39 44
e 39 45
e 39 48
e 39 50
e 39 54
e 39 55
e 39 57
e 39 59
e 39 62
e 39 65
e 39 67
e 39 68
e 39 69
e 39 72
e 39 79
e 39 80
e 39 84
e 39 88
e 39 89
e 39 97
e 40 41
e 40 45
e 40 46
e 40 47
e 40 49
e 40 51
e 40 52
e 40 53
e 40 54
e 40 62
e 40 63
e 40 67
e 40 73
e 40 75
e 40 78
e 40 89
e 40 96
e 41 46
e 41 60
e 41 61
e 41 62
e 41 65
e 41 66
e 41 71
e 41 78
e 41 79
e 41 87
e 41 88
e 41 91
e 41 92
e 41 93
e 41 94
e 41 98
e 41 99
e 42 47
e 42 51
e 42 55
e 42 58
e 42 62
e 42 63
e 42 64
e 42 65
e 42 66
e 42 67
e 42 68
e 42 70
e 42 71
e 42 73
e 42 75
e 42 81
e 42 82
e 42 86
e 42 96
e 43 47
e 43 50
e 43 51
e 43 54
e 43 55
e 43 56
e 43 61
e 43 62
e 43 72
e 43 74
e 43 89
e 43 90
e 43 91
e 43 95
e 44 51
e 44 53
e 44 56
e 44 59
e 44 65
e 44 67
e 44 74
e 44 85
e 44 86
e 45 48
e 45 53
e 45 55
e 45 57
e 45 58
e 45 64
e 45 73
e 45 80
e 45 81
e 45 83
e 45 85
e 45 86
e 45 87
e 45 96
e 45 100
e 46 50
e 46 63
e 46 65
e 46 71
e 46 72
e 46 74
e 46 75
e 46 76
e 46 81
e 46 82
e 46 83
e 46 88
e 46 95
e 46 98
e 47 75
e 47 84
e 47 86
e 47 92
e 47 97
e 47 98
e 48 50
e 48 52
e 48 60
e 48 62
e 48 69
e 48 74
e 48 87
e 48 89
e 48 92
e 49 50
e 49 51
e 49 52
e 49 55
e 49 61
e 49 64
e 49 65
e 49 67
e 49 70
e 49 71
e 49 72
e 49 77
e 49 88
e 49 95
e 49 96
e 49 97
e 49 99
e 50 54
e 50 57
e 50 59
e 50 73
e 50 79
e 50 88
e 51 53
e 51 60
e 51 61
e 51 64
e 51 65
e 51 71
e 51 72
e 51 73
e 51 74
e 51 77
e 51 78
e 51 81
e 52 62
e 52 63
e 52 69
e 52 73
e 52 76
e 52 80
e 52 99
e 53 57
e 53 65
e 53 68
e 53 80
e 53 88
e 53 90
e 53 96
e 54 61
e 54 71
e 54 74
e 54 80
e 54 88
e 54 92
e 54 95
e 54 100
e 55 56
e 55 71
e 55 79
e 55 85
e 55 87
e 55 94
e 56 63
e 56 68
e 56 72
e 56 87
e 56 89
e 56 97
e 57 59
e 57 64
e 57 72
e 57 83
e 57 88
e 57 93
e 57 99
e 58 62
e 58 89
e 59 71
e 59 76
e 59 78
e 59 84
e 59 86
e 60 69
e 60 73
e 60 76
e 60 81
e 60 85
e 60 87
e 60 94
e 60 98
e 61 65
e 61 66
e 61 69
e 61 91
e 62 66
e 62 68
e 62 69
e 62 84
e 62 85
e 62 89
e 62 91
e 62 93
e 62 100
e 63 64
e 63 65
e 63 68
e 63 75
e 63 80
e 63 91
e 63 92
e 63 96
e 63 98
e 64 67
e 64 74
e 64 93
e 64 94
e 64 98
e 65 66
e 65 68
e 65 69
e 65 72
e 65 85
e 65 90
e 65 96
e 65 99
e 66 71
e 66 75
e 66 77
e 66 78
e 67 84
e 68 70
e 68 75
e 68 76
e 68 88
e 68 93
e 68 95
e 68 96
e 69 75
e 69 79
e 69 82
e 69 90
e 70 73
e 70 76
e 70 92
e 70 93
e 70 95
e 70 96
e 70 99
e 71 79
e 72 77
e 72 79
e 72 81
e 72 84
e 72 85
e 72 94
e 72 96
e 73 82
e 73 92
e 74 76
e 74 84
e 75 76
e 75 81
e 75 84
e 75 87
e 75 88
e 75 93
e 75 94
e 75 95
e 76 77
e 76 78
e 76 86
e 76 99
e 77 79
e 77 82
e 77 93
e 77 94
e 78 81
e 78 86
e 78 90
e 78 92
e 78 99
e 80 87
e 80 94
e 81 82
e 81 90
e 82 84
e 82 91
e 82 100
e 83 87
e 83 89
e 83 90
e 84 85
e 84 91
e 84 99
e 85 97
e 88 89
e 88 94
e 90 98
e 94 96
e 94 100
e 96 97
